
  22   10
  10   10   10   10   10   10   10   10   10   10

   0   0   0   0   0   0   0   0   0   0   0   2 2 4 
   3  10  10  10  10  10  10  10  10  10  10   1 3 
   7  10  10  10  10  10  10  10  10  10  10   2 8 5 
  10  10  10  10  10  10  10  10  10  10  10   2 8 5 
   7  10  10  10  10  10  10  10  10  10  10   2 11 6 
   9  10  10  10  10  10  10  10  10  10  10   1 7 
   9  10  10  10  10  10  10  10  10  10  10   1 9 
   5  10  10  10  10  10  10  10  10  10  10   1 9 
   6  10  10  10  10  10  10  10  10  10  10   1 10 
   1  10  10  10  10  10  10  10  10  10  10   2 13 12 
   1  10  10  10  10  10  10  10  10  10  10   1 12 
   6  10  10  10  10  10  10  10  10  10  10   2 19 14 
   8  10  10  10  10  10  10  10  10  10  10   2 19 15 
   3  10  10  10  10  10  10  10  10  10  10   1 15 
   4  10  10  10  10  10  10  10  10  10  10   1 16 
   8  10  10  10  10  10  10  10  10  10  10   1 17 
   4  10  10  10  10  10  10  10  10  10  10   1 18 
   7  10  10  10  10  10  10  10  10  10  10   2 21 20 
   4  10  10  10  10  10  10  10  10  10  10   2 21 20 
   5  10  10  10  10  10  10  10  10  10  10   1 22
   1  10  10  10  10  10  10  10  10  10  10   1 22
   0   0   0   0   0   0   0   0   0   0   0   0 
